\* column_knapsack_problem *\
Minimize
knapsack: 53 col_0 + 54 col_1 + 55 col_10 + 51 col_12 + 55 col_13 + 51 col_14
 + 55 col_17 + 50 col_18 + 51 col_19 + 52 col_20 + 50 col_21 + 53 col_22
 + 53 col_23 + 56 col_27 + 54 col_28 + 56 col_29 + 51 col_3 + 54 col_30
 + 51 col_31 + 51 col_35 + 56 col_37 + 53 col_38 + 51 col_39 + 56 col_4
 + 53 col_40 + 56 col_41 + 52 col_42 + 50 col_43 + 50 col_44 + 51 col_45
 + 53 col_46 + 56 col_48 + 56 col_49 + 53 col_5 + 52 col_50 + 51 col_52
 + 51 col_53 + 50 col_54 + 52 col_55 + 55 col_56 + 52 col_6 + 51 col_60
 + 56 col_61 + 52 col_65 + 53 col_66 + 56 col_67 + 54 col_68 + 53 col_72
 + 52 col_76 + 58 col_77 + 50 col_78 + 52 col_8 + 55 col_80 + 52 col_82
 + 52 col_84 + 52 col_85 + 54 col_86 + 56 col_87 + 52 col_88 + 55 col_89
 + 53 col_90 + 54 col_92 + 51 col_93 + 49 col_96 + 56 col_97 + 54 col_98
 + 53 col_99
Subject To
sensitivity: 8 col_0 + 7 col_1 + 6 col_10 + 10 col_12 + 6 col_13 + 10 col_14
 + 6 col_17 + 11 col_18 + 10 col_19 + 9 col_20 + 11 col_21 + 8 col_22
 + 8 col_23 + 5 col_27 + 7 col_28 + 5 col_29 + 10 col_3 + 7 col_30 + 10 col_31
 + 10 col_35 + 5 col_37 + 8 col_38 + 10 col_39 + 5 col_4 + 8 col_40 + 5 col_41
 + 9 col_42 + 11 col_43 + 11 col_44 + 10 col_45 + 8 col_46 + 5 col_48
 + 5 col_49 + 8 col_5 + 9 col_50 + 10 col_52 + 10 col_53 + 11 col_54
 + 9 col_55 + 6 col_56 + 9 col_6 + 10 col_60 + 5 col_61 + 9 col_65 + 8 col_66
 + 5 col_67 + 7 col_68 + 8 col_72 + 9 col_76 + 3 col_77 + 11 col_78 + 9 col_8
 + 6 col_80 + 9 col_82 + 9 col_84 + 9 col_85 + 7 col_86 + 5 col_87 + 9 col_88
 + 6 col_89 + 8 col_90 + 7 col_92 + 10 col_93 + 12 col_96 + 5 col_97
 + 7 col_98 + 8 col_99 >= 53.7
Bounds
 col_0 <= 1
 col_1 <= 1
 col_10 <= 1
 col_12 <= 1
 col_13 <= 1
 col_14 <= 1
 col_17 <= 1
 col_18 <= 1
 col_19 <= 1
 col_20 <= 1
 col_21 <= 1
 col_22 <= 1
 col_23 <= 1
 col_27 <= 1
 col_28 <= 1
 col_29 <= 1
 col_3 <= 1
 col_30 <= 1
 col_31 <= 1
 col_35 <= 1
 col_37 <= 1
 col_38 <= 1
 col_39 <= 1
 col_4 <= 1
 col_40 <= 1
 col_41 <= 1
 col_42 <= 1
 col_43 <= 1
 col_44 <= 1
 col_45 <= 1
 col_46 <= 1
 col_48 <= 1
 col_49 <= 1
 col_5 <= 1
 col_50 <= 1
 col_52 <= 1
 col_53 <= 1
 col_54 <= 1
 col_55 <= 1
 col_56 <= 1
 col_6 <= 1
 col_60 <= 1
 col_61 <= 1
 col_65 <= 1
 col_66 <= 1
 col_67 <= 1
 col_68 <= 1
 col_72 <= 1
 col_76 <= 1
 col_77 <= 1
 col_78 <= 1
 col_8 <= 1
 col_80 <= 1
 col_82 <= 1
 col_84 <= 1
 col_85 <= 1
 col_86 <= 1
 col_87 <= 1
 col_88 <= 1
 col_89 <= 1
 col_90 <= 1
 col_92 <= 1
 col_93 <= 1
 col_96 <= 1
 col_97 <= 1
 col_98 <= 1
 col_99 <= 1
End
